20
587 233 220
118 79 51
86 32 31
64 58 52
42 42 32
64 55 43
84 70 35
76 57 36
95 60 55
80 66 52
109 73 23
72 65 54
98 55 44
88 61 31
94 82 66
78 77 64
77 32 30
91 61 61
101 100 77
103 63 59
117 61 57
thpack7_7